201
0 171 88 16 85 31 182 38 8 77 
43 192 133 11 140 82 138 34 146 199 
114 176 95 129 125 168 178 15 102 73 
42 99 124 151 173 127 27 174 100 3 
79 60 55 191 122 180 10 20 145 170 
45 75 63 58 137 35 177 130 148 48 
154 56 197 175 188 164 103 142 158 169 
161 17 94 115 134 29 135 2 57 32 
139 97 111 104 47 179 23 66 183 21 
149 113 86 26 193 6 59 109 121 147 
141 37 64 131 118 18 132 22 128 162 
80 30 89 155 184 54 107 83 19 51 
9 101 136 76 72 165 144 33 152 123 
67 52 40 93 106 110 74 84 92 81 
120 25 39 150 98 62 105 12 53 14 
119 44 1 181 117 200 69 112 190 108 
172 13 153 5 160 4 167 41 90 166 
24 36 194 65 157 187 50 46 78 28 
61 68 189 186 91 70 116 185 143 156 
163 126 7 196 195 159 96 49 87 71 
198 
